
Gurobi 9.5.2 (win64) logging started Mon Mar 27 20:28:30 2023

Set parameter LogFile to value "2023-03-27_20hr-25min-09sec/Nodes40_Arcs65_LocNodes30/Formulation-2Instance-2.log"
Set parameter TimeLimit to value 600
Set parameter IntFeasTol to value 1e-09
Set parameter DualReductions to value 0
Set parameter NonConvex to value 2
Gurobi Optimizer version 9.5.2 build v9.5.2rc0 (win64)
Thread count: 4 physical cores, 8 logical processors, using up to 8 threads
Optimize a model with 176 rows, 310 columns and 670 nonzeros
Model fingerprint: 0x69c8c66c
Model has 105 quadratic objective terms
Model has 105 SOS constraints
Variable types: 280 continuous, 30 integer (30 binary)
Coefficient statistics:
  Matrix range     [2e-02, 2e+02]
  Objective range  [4e-06, 1e+03]
  QObjective range [4e-02, 8e+00]
  Bounds range     [1e+00, 1e+00]
  RHS range        [4e-06, 3e+03]
Presolve removed 12 rows and 12 columns
Presolve time: 0.00s
Presolved: 164 rows, 298 columns, 649 nonzeros
Presolved model has 105 SOS constraint(s)
Presolved model has 105 quadratic objective terms
Variable types: 268 continuous, 30 integer (30 binary)

Root relaxation: objective 9.012708e+05, 385 iterations, 0.00 seconds (0.00 work units)

    Nodes    |    Current Node    |     Objective Bounds      |     Work
 Expl Unexpl |  Obj  Depth IntInf | Incumbent    BestBd   Gap | It/Node Time

     0     0 901270.804    0   18          - 901270.804      -     -    0s
H    0     0                    886887.84754 901270.804  1.62%     -    0s
H    0     0                    899321.69419 901270.804  0.22%     -    0s
     0     0 900944.724    0   15 899321.694 900944.724  0.18%     -    0s
     0     0 900944.724    0   15 899321.694 900944.724  0.18%     -    0s
H    0     0                    899324.64950 900944.724  0.18%     -    0s
     0     0 900569.335    0   40 899324.649 900569.335  0.14%     -    0s
     0     0 899893.439    0   42 899324.649 899893.439  0.06%     -    0s
     0     0 899740.313    0   42 899324.649 899740.313  0.05%     -    0s
     0     0 899722.024    0   42 899324.649 899722.024  0.04%     -    0s
     0     0 899698.845    0   42 899324.649 899698.845  0.04%     -    0s
     0     0 899695.881    0   42 899324.649 899695.881  0.04%     -    0s
     0     0 899664.733    0   23 899324.649 899664.733  0.04%     -    0s
     0     0 899664.733    0   22 899324.649 899664.733  0.04%     -    0s
     0     0 899664.733    0   19 899324.649 899664.733  0.04%     -    0s
     0     0 899664.733    0   20 899324.649 899664.733  0.04%     -    0s
     0     0 899664.733    0   19 899324.649 899664.733  0.04%     -    0s
     0     0 899607.052    0   17 899324.649 899607.052  0.03%     -    0s
     0     2 899607.052    0   17 899324.649 899607.052  0.03%     -    0s
H   36    19                    899368.06216 899607.052  0.03%   3.3    0s
H   52    22                    899398.28968 899607.052  0.02%   3.0    0s
H   55    22                    899579.66852 899607.052  0.00%   3.1    0s

Cutting planes:
  Cover: 1
  Implied bound: 3
  Clique: 1
  MIR: 1
  Flow cover: 3
  Relax-and-lift: 2

Explored 57 nodes (1386 simplex iterations) in 0.22 seconds (0.06 work units)
Thread count was 8 (of 8 available processors)

Solution count 7: 899580 899398 899368 ... 886522

Optimal solution found (tolerance 1.00e-04)
Best objective 8.995796685223e+05, best bound 8.996070522835e+05, gap 0.0030%

User-callback calls 488, time in user-callback 0.00 sec
